1639636
14,22,66,3,78,89,44,81,0,4,34,97,100,33,51,28,45,58,83,50,1,80,93,106,15,24,82,2,108,9,40,37,71,30,48,65,76,8,36,25,56,74,85,26,68,69,13,23,62,19,43,31,94,42,84,60,5,29,102,55,91,73,16,52,99,86,61,18,107,32,77,67,39,54,105,59,87,6,70,46,96,90,88,10,38,17,49,75,98,53,57,103,63,21,101,104,72,64,35,7,27,11,41,95,92,12,20,47,79,14